0000000000000000
0011100000011100
0001100000011100
0001110000011100
0000111000011100
0000011000011100
0000011100011100
0000111110111000
0000110111110000
0001110011100000
0011100001100000
0011100001110000
0011100000111000
0011100000011100
0011100000001110
0000000000000000
